python/vi3328_node3263.sol
Feasible solution - objective 0.0
0 C 24.999999999999996 1.0
1 x(0,0) 18.000000000000004 0.0
2 y(0,1,0) 1.0 0.0
3 v(0,1,0) 19.000000000000004 0.0
4 v(1,0,0) 17.999999999999996 0.0
5 u(0,1,0) 19.000000000000007 0.0
6 u(1,0,0) 18.0 0.0
7 y(0,2,0) 1.0 0.0
8 v(0,2,0) 19.000000000000004 0.0
9 v(2,0,0) 24.999999999999996 0.0
10 u(0,2,0) 19.000000000000007 0.0
11 x(1,0) 14.999999999999996 0.0
12 y(2,1,0) 1.0 0.0
13 v(1,2,0) 17.999999999999996 0.0
14 v(2,1,0) 24.999999999999996 0.0
15 u(2,1,0) 5.999999999999996 0.0
16 x(2,0) 22.999999999999996 0.0
17 x(0,1) 4.000000000000002 0.0
18 y(0,1,1) 1.0 0.0
19 v(0,1,1) 11.000000000000002 0.0
20 v(1,0,1) 15.000000000000002 0.0
21 u(0,1,1) 11.000000000000002 0.0
22 y(2,0,1) 1.0 0.0
23 v(0,2,1) 11.000000000000002 0.0
24 v(2,0,1) 12.000000000000002 0.0
25 x(1,1) 11.000000000000002 0.0
26 y(2,1,1) 1.0 0.0
27 v(1,2,1) 15.000000000000002 0.0
28 v(2,1,1) 12.000000000000002 0.0
29 x(2,1) 5.000000000000002 0.0
30 x(0,2) 11.000000000000004 0.0
31 y(1,0,2) 1.0 0.0
32 v(0,1,2) 18.000000000000004 0.0
33 v(1,0,2) 24.999999999999996 0.0
34 u(1,0,2) 12.0 0.0
35 y(2,0,2) 1.0 0.0
36 v(0,2,2) 18.000000000000004 0.0
37 v(2,0,2) 17.999999999999996 0.0
38 x(1,2) 17.999999999999996 0.0
39 y(2,1,2) 1.0 0.0
40 v(1,2,2) 24.999999999999996 0.0
41 v(2,1,2) 17.999999999999996 0.0
42 x(2,2) 11.999999999999996 0.0
